p cnf 7230 17
-4530 -6851 -6865 0
-4410 -6831 -6863 0
-4408 -6833 -6861 0
4530 -6866 0
4410 -6864 0
4408 -6862 0
6865 6866 0
6863 6864 0
6861 6862 0
6851 -6866 0
6831 -6864 0
6833 -6862 0
-6793 -6837 6868 0
6859 6860 0
-6859 -6860 0
6837 -6868 0
6793 -6868 0
